Minimize
    obj: 2 x1 + 3 x2 - 5 x3 - 55 x4
Subject To
    c1: 1 x1 + 2 x2 + 5 x3 - 6 x4 <= 80
    c2: 3 x1 - 1 x2 <= 5
    c3: 4 x1 + 5 x2 <= 104
    c4: 7 x1 - 9 x2 - 72 x3 - 98 x4 <= 57
    c5: 17 x1 - 29 x2 - 34 x3 - 54 x4 <= 579
Bounds
    0 <= x1 <= 5
    0 <= x2 <= 8
    5 <= x3 <= 59
    43 <= x4 <= 89
End
